S = 4;
start = [|0,0,0,0,0,13,15,0,0,0,0,0,0,0,0,0|
0,1,8,0,0,0,0,0,12,0,0,3,0,0,6,2|
0,3,0,15,0,0,0,8,0,0,1,11,9,0,13,0|
0,0,0,0,0,0,1,6,0,0,5,15,0,0,10,14|
0,12,11,8,0,9,0,0,0,0,0,0,0,0,3,0|
1,14,3,9,0,7,2,5,10,0,12,8,11,0,16,0|
0,0,15,0,0,0,10,0,0,0,0,0,0,0,0,0|
0,0,0,0,11,14,0,0,0,15,0,0,0,0,0,0|
0,9,1,0,2,10,0,4,13,0,0,0,3,8,14,0|
3,15,0,2,0,0,0,14,0,10,11,0,4,13,5,0|
4,13,14,0,0,15,0,0,0,0,3,0,0,0,0,6|
0,8,10,16,0,5,9,3,0,14,0,0,7,0,0,0|
0,0,0,0,0,4,3,10,9,16,0,13,0,12,11,1|
13,0,4,0,0,0,0,15,0,11,0,1,0,16,0,0|
0,0,16,3,7,1,11,2,0,0,14,0,0,0,0,0|
0,11,0,0,0,12,0,0,15,3,0,0,0,0,0,5|];